
Gurobi 7.0.2 (linux64) logging started Mon Jun 12 15:03:57 2017

Changed value of parameter logfile to result/NEIS-20170612T0949/scenario_100000PVS30PVWE10var-cost0010.log
   Prev: gurobi.log  Default: 
Optimize a model with 1059933 rows, 937229 columns and 3979188 nonzeros
Coefficient statistics:
  Matrix range     [8e-04, 1e+05]
  Objective range  [1e+00, 1e+00]
  Bounds range     [0e+00, 0e+00]
  RHS range        [3e-03, 1e+05]

Concurrent LP optimizer: primal simplex, dual simplex, and barrier
Showing barrier log only...

Presolve removed 594694 rows and 643281 columns
Presolve time: 2.99s
Presolved: 465239 rows, 293948 columns, 1347043 nonzeros

Ordering time: 0.41s

Barrier statistics:
 Dense cols : 21
 AA' NZ     : 1.881e+06
 Factor NZ  : 6.959e+06 (roughly 400 MBytes of memory)
 Factor Ops : 1.640e+08 (less than 1 second per iteration)
 Threads    : 22

                  Objective                Residual
Iter       Primal          Dual         Primal    Dual     Compl     Time
   0   3.86365988e+11 -2.66702202e+11  9.53e+02 6.93e+03  2.20e+07     4s
   1   3.05960082e+11 -9.70781721e+10  7.05e+02 1.33e+04  7.03e+06     5s
   2   2.98712735e+11 -6.89119174e+10  6.91e+02 8.97e+03  5.68e+06     5s
   3   2.08180597e+11 -1.16873785e+11  4.79e+02 1.94e+03  5.33e+06     6s
   4   3.84624350e+10 -1.14221733e+11  6.30e+01 1.66e+02  8.44e+05     6s
   5   3.99950320e+09 -5.91831119e+10  5.17e+00 3.16e+00  1.26e+05     7s
   6   5.23741404e+08 -1.61108954e+10  3.19e-01 7.33e-06  2.42e+04     7s
   7   2.50823439e+08 -2.38102119e+09  4.75e-02 9.44e-07  3.68e+03     8s
   8   1.40196662e+08 -1.01964028e+09  9.64e-03 4.01e-07  1.61e+03     8s
   9   8.69804327e+07 -1.41550866e+08  8.24e-04 4.51e-08  3.16e+02     9s
  10   8.43479688e+07 -2.14180571e+07  7.72e-04 6.88e-09  1.46e+02     9s
  11   5.82004968e+07 -1.63333299e+07  4.82e-04 5.47e-09  1.03e+02    10s
  12   4.84335166e+07 -1.47506275e+07  3.64e-04 5.28e-09  8.73e+01    10s
  13   4.36109988e+07  2.09882536e+06  3.01e-04 2.66e-09  5.73e+01    11s
  14   2.76548900e+07  9.33212590e+06  1.41e-04 1.34e-09  2.53e+01    11s
  15   2.60860435e+07  1.04686535e+07  1.26e-04 3.38e-09  2.16e+01    12s
  16   2.12052766e+07  1.06369205e+07  8.18e-05 1.43e-09  1.46e+01    12s
  17   2.05343807e+07 -5.11399745e+04  7.60e-05 2.79e-09  2.84e+01    13s
  18   1.77705788e+07  6.84704172e+06  4.72e-05 8.15e-10  1.51e+01    13s
  19   1.67503231e+07  9.00379699e+06  3.64e-05 1.28e-09  1.07e+01    14s
  20   1.61083599e+07  1.01284829e+07  2.95e-05 1.28e-09  8.26e+00    14s
  21   1.53632571e+07  1.11140229e+07  2.15e-05 3.38e-09  5.87e+00    15s
  22   1.49123737e+07  1.17857721e+07  1.66e-05 3.90e-09  4.32e+00    15s
  23   1.45421225e+07  1.22386589e+07  1.28e-05 5.41e-09  3.18e+00    15s
  24   1.41926610e+07  1.24830236e+07  9.10e-06 6.98e-09  2.36e+00    16s
  25   1.38775022e+07  1.27493836e+07  5.74e-06 9.84e-09  1.56e+00    17s
  26   1.37506906e+07  1.29203219e+07  4.39e-06 1.12e-08  1.15e+00    17s
  27   1.36585524e+07  1.29951847e+07  3.40e-06 1.05e-08  9.16e-01    18s
  28   1.35923409e+07  1.30564077e+07  2.70e-06 1.15e-08  7.40e-01    18s
  29   1.35516041e+07  1.30972491e+07  2.27e-06 1.18e-08  6.27e-01    18s
  30   1.35412852e+07  1.31303466e+07  2.18e-06 1.45e-08  5.67e-01    19s
  31   1.34893612e+07  1.31632727e+07  1.64e-06 1.30e-08  4.50e-01    19s
  32   1.34634832e+07  1.32202634e+07  1.40e-06 1.27e-08  3.36e-01    20s
  33   1.34224195e+07  1.32606407e+07  9.87e-07 8.79e-09  2.23e-01    21s
  34   1.33942011e+07  1.32751460e+07  7.07e-07 8.61e-09  1.64e-01    21s
  35   1.33830613e+07  1.32811401e+07  5.98e-07 5.53e-09  1.41e-01    22s
  36   1.33705672e+07  1.32860169e+07  4.76e-07 4.71e-09  1.17e-01    22s
  37   1.33639305e+07  1.32928513e+07  4.13e-07 7.10e-09  9.82e-02    22s
  38   1.33565867e+07  1.32989174e+07  3.45e-07 8.29e-10  7.96e-02    23s
  39   1.33538624e+07  1.33009069e+07  3.19e-07 8.88e-10  7.31e-02    23s
  40   1.33462703e+07  1.33069984e+07  2.47e-07 6.93e-09  5.42e-02    24s
  41   1.33398064e+07  1.33108788e+07  1.90e-07 1.22e-08  3.99e-02    24s
  42   1.33360443e+07  1.33133146e+07  1.56e-07 9.72e-09  3.14e-02    25s
  43   1.33335731e+07  1.33141175e+07  1.32e-07 7.22e-09  2.69e-02    25s
  44   1.33305060e+07  1.33143470e+07  1.03e-07 6.17e-09  2.23e-02    26s
  45   1.33279881e+07  1.33157242e+07  7.95e-08 8.85e-09  1.69e-02    26s
  46   1.33263185e+07  1.33170085e+07  6.39e-08 3.84e-09  1.29e-02    27s
  47   1.33259932e+07  1.33170839e+07  6.10e-08 4.66e-09  1.23e-02    27s
  48   1.33251089e+07  1.33174048e+07  5.30e-08 4.19e-09  1.06e-02    28s
  49   1.33231049e+07  1.33180258e+07  3.55e-08 1.02e-08  7.01e-03    28s
  50   1.33228219e+07  1.33183186e+07  3.30e-08 6.00e-09  6.22e-03    29s
  51   1.33225161e+07  1.33183547e+07  3.01e-08 4.66e-09  5.75e-03    29s
  52   1.33224441e+07  1.33184496e+07  2.94e-08 5.82e-09  5.52e-03    30s
  53   1.33223239e+07  1.33184820e+07  2.83e-08 3.90e-09  5.31e-03    30s
  54   1.33219538e+07  1.33185431e+07  2.49e-08 3.78e-10  4.71e-03    31s
  55   1.33219063e+07  1.33185808e+07  2.44e-08 3.49e-10  4.59e-03    31s
  56   1.33215763e+07  1.33186490e+07  2.15e-08 3.06e-10  4.04e-03    32s
  57   1.33214588e+07  1.33187144e+07  2.04e-08 5.30e-09  3.79e-03    32s
  58   1.33212301e+07  1.33187671e+07  1.83e-08 5.46e-11  3.40e-03    33s
  59   1.33210872e+07  1.33188274e+07  1.69e-08 2.69e-10  3.12e-03    33s
  60   1.33210305e+07  1.33188481e+07  1.64e-08 6.11e-10  3.01e-03    34s
  61   1.33207536e+07  1.33189155e+07  1.38e-08 6.87e-09  2.54e-03    34s
  62   1.33206800e+07  1.33189560e+07  1.31e-08 2.59e-08  2.38e-03    35s
  63   1.33206491e+07  1.33189640e+07  1.28e-08 2.41e-08  2.33e-03    35s
  64   1.33204045e+07  1.33190027e+07  1.06e-08 7.80e-09  1.94e-03    35s
  65   1.33201058e+07  1.33190583e+07  7.86e-09 3.03e-08  1.45e-03    36s
  66   1.33200165e+07  1.33191210e+07  7.00e-09 1.46e-09  1.24e-03    37s
  67   1.33199237e+07  1.33191461e+07  6.15e-09 2.28e-08  1.07e-03    37s
  68   1.33197647e+07  1.33191708e+07  4.67e-09 2.68e-08  8.20e-04    37s
  69   1.33197337e+07  1.33191872e+07  4.42e-09 2.18e-08  7.55e-04    38s
  70   1.33196943e+07  1.33191942e+07  4.04e-09 2.03e-08  6.91e-04    39s
  71   1.33195854e+07  1.33192107e+07  3.07e-09 1.32e-08  5.17e-04    40s
  72   1.33195470e+07  1.33192199e+07  2.71e-09 1.15e-08  4.52e-04    41s
  73   1.33195355e+07  1.33192253e+07  2.61e-09 1.08e-08  4.28e-04    42s
  74   1.33195214e+07  1.33192270e+07  2.47e-09 8.03e-09  4.07e-04    42s
  75   1.33194849e+07  1.33192297e+07  2.13e-09 7.39e-09  3.52e-04    43s
  76   1.33194468e+07  1.33192333e+07  1.77e-09 5.88e-09  2.95e-04    43s
  77   1.33194346e+07  1.33192420e+07  1.67e-09 5.06e-09  2.66e-04    45s
  78   1.33194148e+07  1.33192424e+07  5.24e-07 6.98e-09  2.38e-04    45s
  79   1.33194020e+07  1.33192433e+07  4.81e-07 1.49e-08  2.19e-04    46s
  80   1.33193879e+07  1.33192458e+07  4.32e-07 3.09e-08  1.96e-04    46s
  81   1.33193271e+07  1.33192486e+07  2.15e-07 1.03e-08  1.08e-04    47s
  82   1.33193271e+07  1.33192486e+07  9.82e-07 9.31e-09  1.08e-04    48s
  83   1.33193073e+07  1.33192505e+07  1.76e-06 7.19e-08  7.84e-05    49s
  84   1.33193072e+07  1.33192505e+07  1.76e-06 2.85e-09  7.82e-05    49s
  85   1.33192953e+07  1.33192525e+07  1.21e-06 2.74e-09  5.90e-05    50s
  86   1.33192829e+07  1.33192546e+07  8.11e-07 2.89e-08  3.90e-05    50s
  87   1.33192828e+07  1.33192546e+07  8.11e-07 2.87e-08  3.90e-05    51s
  88   1.33192828e+07  1.33192546e+07  2.07e-06 2.89e-08  3.90e-05    52s
  89   1.33192828e+07  1.33192546e+07  2.86e-06 4.66e-10  3.89e-05    53s
  90   6.63323757e+11 -2.66702202e+11  2.34e+03 6.93e+03  5.31e+07    54s
  91   4.93998934e+11 -3.67889362e+11  1.53e+03 1.64e+03  1.45e+07    55s
  92   5.96526532e+10 -1.56552369e+11  8.18e+00 2.38e+01  3.62e+05    56s
  93   1.35893693e+09 -1.12589113e+10  7.77e-02 4.11e-04  1.76e+04    58s
  94   1.63048286e+08 -5.03302970e+08  5.92e-04 1.15e-05  9.20e+02    59s
  95   8.43146173e+07 -5.00113084e+07  1.50e-04 1.45e-06  1.86e+02    60s
  96   8.00516929e+07 -4.46967441e+07  1.25e-04 1.37e-06  1.72e+02    60s
  97   3.50718750e+07 -1.85859411e+07  2.90e-05 8.07e-07  7.41e+01    61s
  98   2.55933907e+07  2.69847782e+06  1.46e-05 2.59e-07  3.16e+01    62s
  99   2.15672949e+07  7.45987684e+06  9.58e-06 1.27e-07  1.95e+01    62s
 100   1.87918870e+07  9.56899056e+06  6.24e-06 8.01e-08  1.27e+01    62s
 101   1.69619196e+07  1.11727034e+07  4.07e-06 4.51e-08  7.99e+00    63s
 102   1.60607082e+07  1.18580057e+07  3.05e-06 2.99e-08  5.80e+00    63s
 103   1.57948505e+07  1.23050569e+07  2.75e-06 1.98e-08  4.82e+00    64s
 104   1.50530591e+07  1.23972432e+07  1.89e-06 1.78e-08  3.67e+00    64s
 105   1.50080702e+07  1.24447177e+07  1.80e-06 1.68e-08  3.54e+00    64s
 106   1.43356402e+07  1.25877298e+07  1.09e-06 1.37e-08  2.41e+00    65s
 107   1.41921597e+07  1.27496016e+07  9.33e-07 1.01e-08  1.99e+00    65s
 108   1.40103536e+07  1.28789885e+07  7.37e-07 7.80e-09  1.56e+00    66s
 109   1.38551445e+07  1.29571465e+07  5.68e-07 6.33e-09  1.24e+00    66s
 110   1.37152055e+07  1.30626207e+07  4.00e-07 5.12e-09  9.01e-01    66s
 111   1.36361680e+07  1.31073428e+07  3.14e-07 6.52e-09  7.30e-01    67s
 112   1.35379032e+07  1.31819284e+07  2.14e-07 1.03e-08  4.92e-01    67s
 113   1.34754727e+07  1.32111322e+07  1.51e-07 9.78e-09  3.65e-01    68s
 114   1.34337048e+07  1.32496661e+07  1.09e-07 1.58e-08  2.54e-01    68s
 115   1.33996276e+07  1.32716658e+07  7.56e-08 1.21e-08  1.77e-01    68s
 116   1.33719312e+07  1.32851778e+07  4.87e-08 1.40e-08  1.20e-01    69s
 117   1.33578853e+07  1.32939590e+07  3.53e-08 1.07e-08  8.83e-02    69s
 118   1.33494620e+07  1.32985771e+07  2.74e-08 1.35e-08  7.03e-02    70s
 119   1.33461493e+07  1.33024922e+07  2.44e-08 1.11e-08  6.03e-02    70s
 120   1.33407892e+07  1.33048647e+07  1.94e-08 7.45e-09  4.96e-02    70s
 121   1.33361672e+07  1.33077750e+07  1.53e-08 5.88e-09  3.92e-02    71s
 122   1.33311820e+07  1.33099909e+07  1.06e-08 8.56e-09  2.93e-02    71s
 123   1.33278279e+07  1.33125694e+07  7.54e-09 1.16e-09  2.11e-02    72s
 124   1.33263593e+07  1.33144626e+07  6.24e-09 1.25e-08  1.64e-02    72s
 125   1.33249589e+07  1.33148089e+07  4.96e-09 9.60e-09  1.40e-02    73s
 126   1.33239825e+07  1.33157748e+07  4.08e-09 1.04e-08  1.13e-02    73s
 127   1.33230982e+07  1.33164161e+07  3.29e-09 9.02e-09  9.23e-03    73s
 128   1.33224135e+07  1.33170201e+07  2.68e-09 7.68e-09  7.45e-03    74s
 129   1.33220551e+07  1.33173449e+07  2.37e-09 6.69e-09  6.50e-03    74s
 130   1.33216452e+07  1.33175567e+07  2.01e-09 2.50e-09  5.65e-03    75s
 131   1.33215576e+07  1.33176339e+07  1.93e-09 5.47e-09  5.42e-03    75s
 132   1.33212841e+07  1.33178175e+07  1.70e-09 1.11e-09  4.79e-03    76s
 133   1.33211322e+07  1.33178782e+07  1.57e-09 9.90e-10  4.49e-03    76s
 134   1.33206855e+07  1.33181503e+07  1.19e-09 8.73e-10  3.50e-03    76s
 135   1.33205736e+07  1.33182312e+07  1.10e-09 7.42e-10  3.23e-03    77s
 136   1.33203930e+07  1.33185100e+07  9.40e-10 7.28e-10  2.60e-03    77s
 137   1.33201251e+07  1.33186863e+07  7.26e-10 2.33e-09  1.99e-03    78s
 138   1.33199645e+07  1.33187839e+07  5.86e-10 7.93e-10  1.63e-03    78s
 139   1.33199482e+07  1.33188796e+07  5.72e-10 5.12e-09  1.48e-03    79s
 140   1.33199247e+07  1.33188947e+07  5.52e-10 3.61e-09  1.42e-03    80s
 141   1.33198417e+07  1.33189186e+07  4.83e-10 3.32e-09  1.27e-03    80s
 142   1.33198041e+07  1.33189684e+07  4.51e-10 4.80e-10  1.15e-03    81s
 143   1.33197295e+07  1.33190293e+07  3.87e-10 1.16e-09  9.67e-04    81s
 144   1.33196599e+07  1.33190611e+07  3.28e-10 3.35e-10  8.27e-04    82s
 145   1.33195624e+07  1.33191092e+07  2.48e-10 1.86e-09  6.26e-04    83s
 146   1.33195407e+07  1.33191345e+07  2.30e-10 1.51e-09  5.61e-04    83s
 147   1.33194898e+07  1.33191478e+07  1.87e-10 8.73e-10  4.72e-04    84s
 148   1.33194652e+07  1.33191664e+07  1.67e-10 1.86e-09  4.13e-04    85s
 149   1.33193990e+07  1.33191912e+07  1.14e-10 3.06e-10  2.87e-04    85s
 150   1.33193873e+07  1.33191995e+07  1.04e-10 2.04e-10  2.59e-04    86s
 151   1.33193531e+07  1.33192082e+07  7.60e-11 1.16e-09  2.00e-04    86s
 152   1.33193519e+07  1.33192112e+07  7.51e-11 1.75e-09  1.94e-04    87s
 153   1.33193438e+07  1.33192138e+07  6.82e-11 2.62e-09  1.79e-04    88s
 154   1.33193281e+07  1.33192151e+07  5.58e-11 7.42e-10  1.56e-04    88s
 155   1.33192913e+07  1.33192292e+07  2.90e-11 5.24e-10  8.57e-05    89s
 156   1.33192806e+07  1.33192380e+07  1.71e-08 8.36e-08  5.89e-05    89s
 157   1.33192784e+07  1.33192396e+07  9.43e-07 5.41e-08  5.36e-05    90s
 158   1.33192740e+07  1.33192436e+07  9.04e-07 1.13e-07  4.20e-05    91s
 159   1.33192696e+07  1.33192462e+07  6.60e-07 3.85e-08  3.23e-05    91s
 160   1.33192654e+07  1.33192507e+07  4.33e-07 4.92e-08  2.03e-05    92s
 161   1.33192654e+07  1.33192507e+07  4.32e-07 4.90e-08  2.02e-05    93s
 162   1.33192654e+07  1.33192507e+07  4.30e-07 4.88e-08  2.01e-05    93s
 163   1.33192654e+07  1.33192507e+07  5.09e-07 2.40e-10  2.01e-05    94s
 164   1.33192654e+07  1.33192507e+07  5.09e-07 5.82e-11  2.01e-05    95s
 165   1.33192653e+07  1.33192508e+07  6.45e-07 6.26e-10  2.01e-05    96s
 166   1.33192653e+07  1.33192508e+07  6.63e-07 5.82e-11  2.00e-05    97s
 167   1.33192653e+07  1.33192508e+07  6.63e-07 5.38e-10  2.00e-05    98s
 168   1.33192653e+07  1.33192508e+07  6.63e-07 4.95e-10  2.00e-05    99s
 169   1.33192652e+07  1.33192508e+07  6.56e-07 1.31e-10  1.99e-05   100s
 170   1.33192652e+07  1.33192508e+07  6.55e-07 4.22e-10  1.99e-05   101s

Barrier performed 170 iterations in 100.52 seconds
Sub-optimal termination - objective 1.33192654e+07

Crossover log...

  184815 DPushes remaining with DInf 0.0000000e+00               101s
   52027 DPushes remaining with DInf 0.0000000e+00               105s
   44551 DPushes remaining with DInf 0.0000000e+00               110s
   37787 DPushes remaining with DInf 0.0000000e+00               115s
   32803 DPushes remaining with DInf 0.0000000e+00               120s
   27819 DPushes remaining with DInf 0.0000000e+00               125s
   23903 DPushes remaining with DInf 0.0000000e+00               130s
   18207 DPushes remaining with DInf 0.0000000e+00               135s
   11057 DPushes remaining with DInf 0.0000000e+00               141s
    6039 DPushes remaining with DInf 0.0000000e+00               146s
    4612 DPushes remaining with DInf 0.0000000e+00               150s
    3186 DPushes remaining with DInf 0.0000000e+00               155s
       0 DPushes remaining with DInf 1.7796527e-09               158s

  124650 PPushes remaining with PInf 8.1098823e-03               158s
    8824 PPushes remaining with PInf 1.2216118e-01               160s
       0 PPushes remaining with PInf 1.6624894e-03               162s

  Push phase complete: Pinf 1.6624894e-03, Dinf 2.7088939e+03    162s

Iteration    Objective       Primal Inf.    Dual Inf.      Time
  303117    1.3319257e+07   0.000000e+00   2.708894e+03    162s
  303442    1.3319257e+07   0.000000e+00   0.000000e+00    164s

Solved with barrier
Solved in 303442 iterations and 163.73 seconds
Optimal objective  1.331925706e+07
